(declare-fun bvlambda_19_ () (_ BitVec 1))
(declare-fun bvlambda_27_ () (_ BitVec 1))
(declare-fun bvlambda_28_ () (_ BitVec 2))
(declare-fun a143 () (Array (_ BitVec 1) (_ BitVec 12)))
(assert
(let (($e1 (_ bv0 1)))
(let (($e21 (_ bv0 9)))
(let (($e36 (_ bv1630 12)))
(let (($e160               bvlambda_19_ ))
(let (($e161                  $e160 ))
(let (($e164 (concat        $e21  bvlambda_27_)))
(let (($e165 (concat $e164 bvlambda_28_)))
(let (($e166                           $e165       ))
(let (($e167 (store a143 (bvnot $e1) $e166)))
(let (($e168 (store $e167 $e161 $e36)))
(let (($e613        $e168                           ))
(let (($e614 (select $e613 (bvnot $e1))))
             (   extract        $e614)
                                                                                                                                                                                                                                                                                                                                                                                                                                                                                                                                                                                                                                                                                                                                                                                                                                                                                                                                                                                                                                                                                                                                                                                                                                                                       ))                                                                                                                                                                                                                                                                                                                                                                                                                                                            )))))  ))                                                                                   )              )                   ))
